p cnf 276 332
-1 3 13 61 87 90 96 97 123 144 147 173 216 227 236 -264 -270 -272 -274 0 
-2 16 52 86 94 95 118 133 142 159 168 171 177 201 203 207 210 237 -264 -270 -272 -274 0 
-3 1 13 61 87 90 96 97 123 144 147 173 216 227 237 -264 -270 -272 -274 0 
-4 12 19 26 31 53 98 122 138 155 218 237 -264 -270 -272 -274 0 
-5 8 36 70 71 81 110 164 170 199 204 224 237 -264 -270 -272 -274 0 
-6 127 163 189 233 236 -264 -270 -272 -274 0 
-7 15 21 116 119 184 187 200 238 -264 -270 -272 -274 0 
-8 5 36 70 71 81 110 164 170 199 204 224 236 -264 -270 -272 -274 0 
-9 185 193 195 238 -264 -270 -272 -274 0 
-10 11 33 37 63 67 237 -264 -270 -272 -274 0 
-11 10 33 37 63 67 239 -264 -270 -272 -274 0 
-12 4 19 26 31 53 98 122 138 155 218 236 -264 -270 -272 -274 0 
-13 1 3 61 87 90 96 97 123 144 147 173 216 227 238 -264 -270 -272 -274 0 
-14 236 -264 -270 -272 -274 0 
-15 7 21 116 119 184 187 200 238 -264 -270 -272 -274 0 
-16 2 52 86 94 95 118 133 142 159 168 171 177 201 203 207 210 237 -264 -270 -272 -274 0 
-17 34 237 -264 -270 -272 -274 0 
-18 30 69 73 79 125 129 143 158 188 196 212 219 220 225 236 -264 -270 -272 -274 0 
-19 4 12 26 31 53 98 122 138 155 218 -20 120 124 183 186 238 -264 -270 -272 -274 0 
-21 7 15 116 119 184 187 200 238 -264 -270 -272 -274 0 
-17 34 238 -264 -270 -272 -274 0 
-22 132 236 -264 -270 -272 -274 0 
-23 27 231 235 238 -264 -270 -272 -274 0 
-24 -25 238 -264 -270 -272 -274 0 
-26 4 12 19 31 53 98 122 138 155 218 -27 23 231 235 238 -264 -270 -272 -274 0 
-28 -29 182 236 -264 -270 -272 -274 0 
-30 18 69 73 79 125 129 143 158 188 196 212 219 220 225 240 0 
-31 4 12 19 26 53 98 122 138 155 218 -32 41 83 240 0 
-19 4 12 26 31 53 98 122 138 155 218 238 -264 -270 -272 -274 0 
-33 10 11 37 63 67 -31 4 12 19 26 53 98 122 138 155 218 240 0 
-34 17 -35 76 88 128 213 232 -36 5 8 70 71 81 110 164 170 199 204 224 238 -264 -270 -272 -274 0 
-19 4 12 26 31 53 98 122 138 155 218 236 -264 -270 -272 -274 0 
-37 10 11 33 63 67 236 -264 -270 -272 -274 0 
-38 -36 5 8 70 71 81 110 164 170 199 204 224 -39 238 -264 -270 -272 -274 0 
-40 172 -38 -32 41 83 238 -264 -270 -272 -274 0 
-39 238 -264 -270 -272 -274 0 
-40 172 -38 -39 238 -264 -270 -272 -274 0 
-41 32 83 -39 238 -264 -270 -272 -274 0 
-42 238 -264 -270 -272 -274 0 
-43 109 238 -264 -270 -272 -274 0 
-29 182 241 -265 0 
-44 103 112 113 114 115 169 238 -264 -270 -272 -274 0 
-45 238 -264 -270 -272 -274 0 
-45 242 -264 -270 -272 -274 0 
-40 172 238 -264 -270 -272 -274 0 
-46 91 243 -264 -270 -272 -274 0 
-47 145 152 238 -264 -270 -272 -274 0 
-42 244 -264 -270 -272 -274 0 
-48 55 135 -49 245 0 
-48 55 135 238 -264 -270 -272 -274 0 
-50 238 -264 -270 -272 -274 0 
-43 109 -51 238 -264 -270 -272 -274 0 
-52 2 16 86 94 95 118 133 142 159 168 171 177 201 203 207 210 238 -264 -270 -272 -274 0 
-53 4 12 19 26 31 98 122 138 155 218 238 -264 -270 -272 -274 0 
-54 238 -264 -270 -272 -274 0 
-55 48 135 -56 -57 246 -264 -270 -272 -274 0 
-58 238 -264 -270 -272 -274 0 
-59 -60 72 78 156 238 -264 -270 -272 -274 0 
-61 1 3 13 87 90 96 97 123 144 147 173 216 227 247 0 
-62 248 0 
-45 -63 10 11 33 37 67 -64 154 245 0 
-65 249 0 
-45 -66 -67 10 11 33 37 63 -68 82 238 -264 -270 -272 -274 0 
-69 18 30 73 79 125 129 143 158 188 196 212 219 220 225 -70 5 8 36 71 81 110 164 170 199 204 224 250 0 
-69 18 30 73 79 125 129 143 158 188 196 212 219 220 225 -70 5 8 36 71 81 110 164 170 199 204 224 251 0 
-71 5 8 36 70 81 110 164 170 199 204 224 252 0 
-61 1 3 13 87 90 96 97 123 144 147 173 216 227 253 0 
-72 60 78 156 245 0 
-73 18 30 69 79 125 129 143 158 188 196 212 219 220 225 254 0 
-51 238 -264 -270 -272 -274 0 
-29 182 238 -264 -270 -272 -274 0 
-74 153 238 -264 -270 -272 -274 0 
-75 255 0 
-76 35 88 128 213 232 -77 237 -264 -270 -272 -274 0 
-78 60 72 156 245 0 
-79 18 30 69 73 125 129 143 158 188 196 212 219 220 225 -80 238 -264 -270 -272 -274 0 
-81 5 8 36 70 71 110 164 170 199 204 224 244 -264 -270 -272 -274 0 
-82 68 245 0 
-83 32 41 -84 238 -264 -270 -272 -274 0 
-17 34 256 -264 -270 -272 -274 0 
-85 -86 2 16 52 94 95 118 133 142 159 168 171 177 201 203 207 210 257 0 
-48 55 135 -87 1 3 13 61 90 96 97 123 144 147 173 216 227 258 0 
-88 35 76 128 213 232 -77 250 0 
-89 250 0 
-90 1 3 13 61 87 96 97 123 144 147 173 216 227 -88 35 76 128 213 232 251 0 
-89 251 0 
-88 35 76 128 213 232 258 0 
-88 35 76 128 213 232 -91 46 258 0 
-40 172 -92 257 0 
-93 251 0 
-93 -94 2 16 52 86 95 118 133 142 159 168 171 177 201 203 207 210 250 0 
-34 17 -92 257 0 
-92 257 0 
-75 -95 2 16 52 86 94 118 133 142 159 168 171 177 201 203 207 210 254 0 
-96 1 3 13 61 87 90 97 123 144 147 173 216 227 -73 18 30 69 79 125 129 143 158 188 196 212 219 220 225 254 0 
-34 17 -95 2 16 52 86 94 118 133 142 159 168 171 177 201 203 207 210 254 0 
-97 1 3 13 61 87 90 96 123 144 147 173 216 227 236 -264 -270 -272 -274 0 
-98 4 12 19 26 31 53 122 138 155 218 238 -264 -270 -272 -274 0 
-99 -100 248 0 
-48 55 135 -18 30 69 73 79 125 129 143 158 188 196 212 219 220 225 236 -264 -270 -272 -274 0 
-101 247 0 
-102 247 0 
-103 44 112 113 114 115 169 259 0 
-104 253 0 
-75 -105 238 -264 -270 -272 -274 0 
-74 153 -106 238 -264 -270 -272 -274 0 
-99 253 0 
-43 109 -79 18 30 69 73 125 129 143 158 188 196 212 219 220 225 238 -264 -270 -272 -274 0 
-43 109 255 0 
-43 109 260 0 
-107 253 0 
-75 254 0 
-108 261 0 
-34 17 -109 43 -108 261 0 
-43 109 -74 153 -110 5 8 36 70 71 81 164 170 199 204 224 262 0 
-111 263 0 
-24 238 -264 -270 -272 -274 0 
-112 44 103 113 114 115 169 238 -264 -270 -272 -274 0 
-113 44 103 112 114 115 169 238 -264 -270 -272 -274 0 
-114 44 103 112 113 115 169 238 -264 -270 -272 -274 0 
-115 44 103 112 113 114 169 238 -264 -270 -272 -274 0 
-116 7 15 21 119 184 187 200 238 -264 -270 -272 -274 0 
-117 234 236 -264 -270 -272 -274 0 
-28 -118 2 16 52 86 94 95 133 142 159 168 171 177 201 203 207 210 238 -264 -270 -272 -274 0 
-119 7 15 21 116 184 187 200 238 -264 -270 -272 -274 0 
-120 20 124 183 186 238 -264 -270 -272 -274 0 
-121 237 -264 -270 -272 -274 0 
-122 4 12 19 26 31 53 98 138 155 218 238 -264 -270 -272 -274 0 
-88 35 76 128 213 232 238 -264 -270 -272 -274 0 
-43 109 -123 1 3 13 61 87 90 96 97 144 147 173 216 227 238 -264 -270 -272 -274 0 
-29 182 245 0 
-19 4 12 26 31 53 98 122 138 155 218 -124 20 120 183 186 238 -264 -270 -272 -274 0 
-37 10 11 33 63 67 238 -264 -270 -272 -274 0 
-125 18 30 69 73 79 129 143 158 188 196 212 219 220 225 237 -264 -270 -272 -274 0 
-126 -29 182 245 0 
-45 -127 6 163 189 233 -120 20 124 183 186 238 -264 -270 -272 -274 0 
-43 109 -128 35 76 88 213 232 238 -264 -270 -272 -274 0 
-26 4 12 19 31 53 98 122 138 155 218 255 0 
-41 32 83 -29 182 238 -264 -270 -272 -274 0 
-107 248 0 
-89 247 0 
-89 253 0 
-129 18 30 69 73 79 125 143 158 188 196 212 219 220 225 248 0 
-130 253 0 
-79 18 30 69 73 125 129 143 158 188 196 212 219 220 225 238 -264 -270 -272 -274 0 
-17 34 -26 4 12 19 31 53 98 122 138 155 218 236 -264 -270 -272 -274 0 
-22 132 -131 238 -264 -270 -272 -274 0 
-28 -132 22 238 -264 -270 -272 -274 0 
-133 2 16 52 86 94 95 118 142 159 168 171 177 201 203 207 210 238 -264 -270 -272 -274 0 
-44 103 112 113 114 115 169 236 -264 -270 -272 -274 0 
-134 264 -270 -272 -274 0 
-134 265 -241 0 
-27 23 231 235 238 -264 -270 -272 -274 0 
-60 72 78 156 238 -264 -270 -272 -274 0 
-135 48 55 236 -264 -270 -272 -274 0 
-59 -79 18 30 69 73 125 129 143 158 188 196 212 219 220 225 238 -264 -270 -272 -274 0 
-77 238 -264 -270 -272 -274 0 
-8 5 36 70 71 81 110 164 170 199 204 224 -52 2 16 86 94 95 118 133 142 159 168 171 177 201 203 207 210 236 -264 -270 -272 -274 0 
-136 236 -264 -270 -272 -274 0 
-19 4 12 26 31 53 98 122 138 155 218 -137 238 -264 -270 -272 -274 0 
-138 4 12 19 26 31 53 98 122 155 218 236 -264 -270 -272 -274 0 
-19 4 12 26 31 53 98 122 138 155 218 -139 238 -264 -270 -272 -274 0 
-140 257 0 
-105 243 -264 -270 -272 -274 0 
-85 -48 55 135 266 0 
-140 266 0 
-140 258 0 
-141 267 -264 -270 -272 -274 0 
-142 2 16 52 86 94 95 118 133 159 168 171 177 201 203 207 210 245 0 
-143 18 30 69 73 79 125 129 158 188 196 212 219 220 225 263 0 
-144 1 3 13 61 87 90 96 97 123 147 173 216 227 262 0 
-145 47 152 245 0 
-146 206 250 0 
-75 260 0 
-147 1 3 13 61 87 90 96 97 123 144 173 216 227 259 0 
-93 -148 247 0 
-149 245 0 
-150 253 0 
-151 253 0 
-152 47 145 248 0 
-25 -58 238 -264 -270 -272 -274 0 
-146 206 251 0 
-48 55 135 -1 3 13 61 87 90 96 97 123 144 147 173 216 227 236 -264 -270 -272 -274 0 
-153 74 -58 238 -264 -270 -272 -274 0 
-154 64 245 0 
-155 4 12 19 26 31 53 98 122 138 218 238 -264 -270 -272 -274 0 
-156 60 72 78 268 -264 -270 -272 -274 0 
-157 268 -264 -270 -272 -274 0 
-158 18 30 69 73 79 125 129 143 188 196 212 219 220 225 -156 60 72 78 268 -264 -270 -272 -274 0 
-17 34 -159 2 16 52 86 94 95 118 133 142 168 171 177 201 203 207 210 269 0 
-34 17 -153 74 -108 261 0 
-82 68 245 0 
-160 -149 -161 245 0 
-160 -145 47 152 245 0 
-83 32 41 -39 238 -264 -270 -272 -274 0 
-162 238 -264 -270 -272 -274 0 
-59 -17 34 -19 4 12 26 31 53 98 122 138 155 218 236 -264 -270 -272 -274 0 
-103 44 112 113 114 115 169 263 0 
-163 6 127 189 233 -8 5 36 70 71 81 110 164 170 199 204 224 236 -264 -270 -272 -274 0 
-75 -17 34 -110 5 8 36 70 71 81 164 170 199 204 224 262 0 
-77 237 -264 -270 -272 -274 0 
-111 259 0 
-145 47 152 245 0 
-46 91 267 -264 -270 -272 -274 0 
-74 153 -26 4 12 19 31 53 98 122 138 155 218 236 -264 -270 -272 -274 0 
-164 5 8 36 70 71 81 110 170 199 204 224 255 0 
-160 -154 64 245 0 
-160 -82 68 245 0 
-77 -19 4 12 26 31 53 98 122 138 155 218 236 -264 -270 -272 -274 0 
-149 -29 182 245 0 
-59 -149 -29 182 245 0 
-149 -29 182 238 -264 -270 -272 -274 0 
-41 32 83 -165 270 -264 -272 -274 0 
-153 74 -149 -29 182 245 0 
-41 32 83 -166 238 -264 -270 -272 -274 0 
-27 23 231 235 238 -264 -270 -272 -274 0 
-167 -29 182 236 -264 -270 -272 -274 0 
-41 32 83 -29 182 270 -264 -272 -274 0 
-168 2 16 52 86 94 95 118 133 142 159 171 177 201 203 207 210 -41 32 83 -149 -29 182 271 0 
-169 44 103 112 113 114 115 237 -264 -270 -272 -274 0 
-170 5 8 36 70 71 81 110 164 199 204 224 -171 2 16 52 86 94 95 118 133 142 159 168 177 201 203 207 210 -172 40 -173 1 3 13 61 87 90 96 97 123 144 147 216 227 246 -264 -270 -272 -274 0 
-89 -174 -175 246 -264 -270 -272 -274 0 
-176 272 -264 -270 -274 0 
-26 4 12 19 31 53 98 122 138 155 218 273 0 
-107 247 0 
-99 247 0 
-129 18 30 69 73 79 125 143 158 188 196 212 219 220 225 247 0 
-177 2 16 52 86 94 95 118 133 142 159 168 171 201 203 207 210 253 0 
-75 248 0 
-178 245 0 
-179 -24 238 -264 -270 -272 -274 0 
-180 -29 182 238 -264 -270 -272 -274 0 
-41 32 83 -166 238 -264 -270 -272 -274 0 
-29 182 236 -264 -270 -272 -274 0 
-55 48 135 -83 32 41 -29 182 238 -264 -270 -272 -274 0 
-181 -41 32 83 -149 -29 182 238 -264 -270 -272 -274 0 
-182 29 -29 182 274 -264 -270 -272 0 
-183 20 120 124 186 238 -264 -270 -272 -274 0 
-184 7 15 21 116 119 187 200 238 -264 -270 -272 -274 0 
-43 109 -29 182 236 -264 -270 -272 -274 0 
-84 -83 32 41 238 -264 -270 -272 -274 0 
-185 9 193 195 238 -264 -270 -272 -274 0 
-52 2 16 86 94 95 118 133 142 159 168 171 177 201 203 207 210 -29 182 238 -264 -270 -272 -274 0 
-93 238 -264 -270 -272 -274 0 
-186 20 120 124 183 238 -264 -270 -272 -274 0 
-15 7 21 116 119 184 187 200 238 -264 -270 -272 -274 0 
-187 7 15 21 116 119 184 200 238 -264 -270 -272 -274 0 
-2 16 52 86 94 95 118 133 142 159 168 171 177 201 203 207 210 244 -264 -270 -272 -274 0 
-188 18 30 69 73 79 125 129 143 158 196 212 219 220 225 236 -264 -270 -272 -274 0 
-189 6 127 163 233 239 -264 -270 -272 -274 0 
-35 76 88 128 213 232 240 0 
-190 -41 32 83 -191 238 -264 -270 -272 -274 0 
-45 -43 109 -192 -41 32 83 -29 182 238 -264 -270 -272 -274 0 
-43 109 -29 182 245 0 
-76 35 88 128 213 232 238 -264 -270 -272 -274 0 
-193 9 185 195 238 -264 -270 -272 -274 0 
-194 237 -264 -270 -272 -274 0 
-2 16 52 86 94 95 118 133 142 159 168 171 177 201 203 207 210 -29 182 237 -264 -270 -272 -274 0 
-16 2 52 86 94 95 118 133 142 159 168 171 177 201 203 207 210 -29 182 237 -264 -270 -272 -274 0 
-195 9 185 193 238 -264 -270 -272 -274 0 
-196 18 30 69 73 79 125 129 143 158 188 212 219 220 225 -133 2 16 52 86 94 95 118 142 159 168 171 177 201 203 207 210 -197 238 -264 -270 -272 -274 0 
-17 34 -48 55 135 -19 4 12 26 31 53 98 122 138 155 218 236 -264 -270 -272 -274 0 
-198 245 0 
-59 -19 4 12 26 31 53 98 122 138 155 218 238 -264 -270 -272 -274 0 
-8 5 36 70 71 81 110 164 170 199 204 224 -19 4 12 26 31 53 98 122 138 155 218 236 -264 -270 -272 -274 0 
-77 -52 2 16 86 94 95 118 133 142 159 168 171 177 201 203 207 210 236 -264 -270 -272 -274 0 
-59 -19 4 12 26 31 53 98 122 138 155 218 236 -264 -270 -272 -274 0 
-43 109 -199 5 8 36 70 71 81 110 164 170 204 224 238 -264 -270 -272 -274 0 
-19 4 12 26 31 53 98 122 138 155 218 -200 7 15 21 116 119 184 187 238 -264 -270 -272 -274 0 
-201 2 16 52 86 94 95 118 133 142 159 168 171 177 203 207 210 238 -264 -270 -272 -274 0 
-202 245 0 
-203 2 16 52 86 94 95 118 133 142 159 168 171 177 201 207 210 245 0 
-74 153 237 -264 -270 -272 -274 0 
-204 5 8 36 70 71 81 110 164 170 199 224 237 -264 -270 -272 -274 0 
-12 4 19 26 31 53 98 122 138 155 218 237 -264 -270 -272 -274 0 
-205 236 -264 -270 -272 -274 0 
-8 5 36 70 71 81 110 164 170 199 204 224 -138 4 12 19 26 31 53 98 122 155 218 236 -264 -270 -272 -274 0 
-206 146 250 0 
-99 -26 4 12 19 31 53 98 122 138 155 218 248 0 
-206 146 251 0 
-207 2 16 52 86 94 95 118 133 142 159 168 171 177 201 203 210 -208 246 -264 -270 -272 -274 0 
-209 238 -264 -270 -272 -274 0 
-89 -70 5 8 36 71 81 110 164 170 199 204 224 251 0 
-210 2 16 52 86 94 95 118 133 142 159 168 171 177 201 203 207 -211 -212 18 30 69 73 79 125 129 143 158 188 196 219 220 225 246 -264 -270 -272 -274 0 
-89 -70 5 8 36 71 81 110 164 170 199 204 224 250 0 
-99 -26 4 12 19 31 53 98 122 138 155 218 253 0 
-48 55 135 -88 35 76 128 213 232 250 0 
-99 248 0 
-213 35 76 88 128 232 271 0 
-214 222 271 0 
-215 268 -264 -270 -272 -274 0 
-160 245 0 
-216 1 3 13 61 87 90 96 97 123 144 147 173 227 -113 44 103 112 114 115 169 -108 261 0 
-79 18 30 69 73 125 129 143 158 188 196 212 219 220 225 -58 238 -264 -270 -272 -274 0 
-93 -99 247 0 
-59 -138 4 12 19 26 31 53 98 122 155 218 236 -264 -270 -272 -274 0 
-43 109 -75 -74 153 -217 238 -264 -270 -272 -274 0 
-79 18 30 69 73 125 129 143 158 188 196 212 219 220 225 -184 7 15 21 116 119 187 200 238 -264 -270 -272 -274 0 
-218 4 12 19 26 31 53 98 122 138 155 236 -264 -270 -272 -274 0 
-18 30 69 73 79 125 129 143 158 188 196 212 219 220 225 238 -264 -270 -272 -274 0 
-41 32 83 -180 -29 182 270 -264 -272 -274 0 
-34 17 -219 18 30 69 73 79 125 129 143 158 188 196 212 220 225 261 0 
-59 -105 -220 18 30 69 73 79 125 129 143 158 188 196 212 219 225 -221 -222 214 267 -264 -270 -272 -274 0 
-199 5 8 36 70 71 81 110 164 170 204 224 238 -264 -270 -272 -274 0 
-43 109 -17 34 -133 2 16 52 86 94 95 118 142 159 168 171 177 201 203 207 210 236 -264 -270 -272 -274 0 
-2 16 52 86 94 95 118 133 142 159 168 171 177 201 203 207 210 -110 5 8 36 70 71 81 164 170 199 204 224 237 -264 -270 -272 -274 0 
-223 236 -264 -270 -272 -274 0 
-224 5 8 36 70 71 81 110 164 170 199 204 248 0 
-225 18 30 69 73 79 125 129 143 158 188 196 212 219 220 -226 -59 -227 1 3 13 61 87 90 96 97 123 144 147 173 216 275 -264 -270 -272 -274 0 
-59 -19 4 12 26 31 53 98 122 138 155 218 -217 238 -264 -270 -272 -274 0 
-137 -58 238 -264 -270 -272 -274 0 
-228 229 -41 32 83 238 -264 -270 -272 -274 0 
-229 228 -230 250 0 
-88 35 76 128 213 232 -77 251 0 
-70 5 8 36 71 81 110 164 170 199 204 224 -89 250 0 
-85 266 0 
-43 109 242 -264 -270 -272 -274 0 
-45 244 -264 -270 -272 -274 0 
-27 23 231 235 238 -264 -270 -272 -274 0 
-231 23 27 235 238 -264 -270 -272 -274 0 
-126 245 0 
-232 35 76 88 128 213 243 -264 -270 -272 -274 0 
-43 109 276 -264 -270 -272 -274 0 
-233 6 127 163 189 252 0 
-84 238 -264 -270 -272 -274 0 
-74 153 236 -264 -270 -272 -274 0 
-234 117 245 0 
-186 20 120 124 183 238 -264 -270 -272 -274 0 
-235 23 27 231 238 -264 -270 -272 -274 0 
-48 55 135 255 0 
-217 238 -264 -270 -272 -274 0 
-45 -29 182 238 -264 -270 -272 -274 0 
